17 119
1 39
30 75
1 111
10 161
10 125
44 71
8 174
28 49
88 19
98 4
2 109
21 182
87 14
50 37
24 138
58 89
44 72
33 142
17 10
3 165
30 148
35 24
23 36
1 96
64 11
31 63
91 63
7 101
53 57
38 67
17 49
18 104
23 138
41 91
98 1
82 42
53 53
3 41
23 63
64 23
7 186
55 48
5 200
15 186
13 94
10 200
65 74
86 27
11 169
